
Gurobi 9.5.2 (linux64, C++) logging started Mon Aug 15 20:16:44 2022

Set parameter LogFile to value "lp1.log"
Gurobi Optimizer version 9.5.2 build v9.5.2rc0 (linux64)
Thread count: 6 physical cores, 12 logical processors, using up to 12 threads
Optimize a model with 1001 rows, 100000 columns and 200000 nonzeros
Model fingerprint: 0x70c5a9af
Coefficient statistics:
  Matrix range     [1e+00, 1e+02]
  Objective range  [1e+00, 1e+02]
  Bounds range     [1e+00, 1e+00]
  RHS range        [1e+00, 5e+03]

Concurrent LP optimizer: primal simplex, dual simplex, and barrier
Showing barrier log only...

Presolve removed 0 rows and 36590 columns
Presolve time: 0.17s
Presolved: 1001 rows, 63410 columns, 126820 nonzeros

Ordering time: 0.00s

Barrier statistics:
 AA' NZ     : 1.000e+03
 Factor NZ  : 2.436e+03 (roughly 26 MB of memory)
 Factor Ops : 1.430e+04 (less than 1 second per iteration)
 Threads    : 1

                  Objective                Residual
Iter       Primal          Dual         Primal    Dual     Compl     Time
   0   5.86101257e+06  4.39009270e+04  1.74e+05 6.80e+01  2.48e+02     0s
   1   2.05207994e+06  1.34960532e+05  5.44e+04 1.16e+01  7.89e+01     0s
   2   7.22481543e+04  1.36451550e+05  1.08e+02 7.11e-14  6.87e-01     0s
   3   7.79810271e+04  1.03759640e+05  1.57e+00 5.68e-14  2.03e-01     0s
   4   8.31394582e+04  9.80429582e+04  3.94e-01 4.26e-14  1.17e-01     0s
   5   8.45497837e+04  9.47901289e+04  2.71e-01 2.84e-14  8.03e-02     0s
   6   8.52595823e+04  9.24609775e+04  2.26e-01 2.84e-14  5.65e-02     0s
   7   8.77222454e+04  9.20509479e+04  9.59e-02 2.84e-14  3.39e-02     0s
   8   8.90723491e+04  9.15520357e+04  4.40e-02 2.84e-14  1.94e-02     0s
   9   8.92083296e+04  9.14346092e+04  4.03e-02 4.26e-14  1.74e-02     0s
  10   8.94544528e+04  9.10889703e+04  3.39e-02 2.84e-14  1.28e-02     0s
  11   8.97595102e+04  9.10031221e+04  2.63e-02 2.84e-14  9.75e-03     0s
  12   9.01091705e+04  9.09383018e+04  1.84e-02 2.84e-14  6.50e-03     0s

Barrier performed 12 iterations in 0.37 seconds (0.20 work units)
Barrier solve interrupted - model solved by another algorithm


Solved with primal simplex
Solved in 7368 iterations and 0.37 seconds (0.21 work units)
Optimal objective  9.089033333e+04
